NAME: tsp30_11
COMMENT: 30-tsp problem (Padberg/Rinaldi)
TYPE: TSP
DIMENSION: 30
EDGE_WEIGHT_TYPE : EUC_2D
NODE_COORD_SECTION
1 34 8
2 38 21
3 29 9
4 27 9
5 26 12
6 37 23
7 25 11
8 39 9
9 35 11
10 6 9
11 18 0
12 1 13
13 19 26
14 13 14
15 20 16
16 5 10
17 11 1
18 31 0
19 2 15
20 10 25
21 28 4
22 22 35
23 18 16
24 5 3
25 39 11
26 39 37
27 15 3
28 35 2
29 14 11
30 14 24
